5 5
6 16
6 8
8 8
5 15
10 14
8 20
6 18
11 6
11 7
14 8
14 14
15 15
9 16
13 14
13 4
9 15
9 4
11 9
15 9
14 17
6 18
12 6
9 17
12 10
14 10
8 18
5 3
15 19
9 8
10 18
10 9
7 7
6 8
7 12
10 12
5 11
5 6
8 15
15 19
13 4
6 6
10 4
6 10
6 6
10 7
13 7
15 7
13 10
9 7
11 8
7 12
9 13
12 16
12 16
15 5
12 6
15 19
9 19
9 8
14 19
10 13
7 17
6 11
12 3
6 15
15 10
15 9
6 9
10 12
14 10
9 12
5 8
8 7
8 5
14 6
10 12
7 9
7 11
12 17
8 5
6 11
5 3
8 19
12 4
11 6
7 7
8 11
15 11
13 6
7 14
5 6
5 9
7 12
6 11
11 4
6 3
5 16
9 19
13 8